Route #1: 19 15 24 16 42 33 8
Route #2: 11 12 35 18 25 44
Route #3: 32 3 22 10 7 39 5 36
Route #4: 13 2 37 30 4 38
Route #5: 23
Route #6: 14 26 43 6 45 17 9
Route #7: 28 41 20 27 1 40 34 31 29 21
Cost 914
Time 0.054757
